User:   grantcates@s-8d3a102c.off.site.uni-stuttgart.de
Date:   Tue Aug 21 17:47:08 2018
Arch:   x86_64
Pid:    83748
Python: 3.5.1
gpaw:   /Users/grantcates/anaconda/lib/python3.5/site-packages/gpaw
_gpaw:  /Users/grantcates/anaconda/lib/python3.5/site-packages/
        _gpaw.cpython-35m-darwin.so
ase:    /Users/grantcates/anaconda/lib/python3.5/site-packages/ase (version 3.16.2)
numpy:  /Users/grantcates/anaconda/lib/python3.5/site-packages/numpy (version 1.10.4)
scipy:  /Users/grantcates/anaconda/lib/python3.5/site-packages/scipy (version 0.17.0)
units:  Angstrom and eV
cores:  1

Input parameters:
  xc: PBE

System changes: positions, numbers, cell, pbc, initial_charges, initial_magmoms

Initialize ...

Be-setup:
  name: Beryllium
  id: 05824862ae4eb59fd0e1af4fca8e65d4
  Z: 4
  valence: 2
  core: 2
  charge: 0.0
  file: /Users/grantcates/anaconda/lib/python3.5/site-packages/gpaw/gpaw-setups-0.9.20000/Be.PBE.gz
  cutoffs: 0.79(comp), 1.42(filt), 1.77(core), lmax=2
  valence states:
                energy  radius
    2s(2.00)    -5.610   0.794
    2p(0.00)    -2.018   0.794
    *s          21.602   0.794

  Using partial waves for Be as LCAO basis

Al-setup:
  name: Aluminium
  id: 0292cae29f5d6237e50f6abdd43a7bdd
  Z: 13
  valence: 3
  core: 10
  charge: 0.0
  file: /Users/grantcates/anaconda/lib/python3.5/site-packages/gpaw/gpaw-setups-0.9.20000/Al.PBE.gz
  cutoffs: 1.08(comp), 1.91(filt), 2.36(core), lmax=2
  valence states:
                energy  radius
    3s(2.00)    -7.753   1.085
    3p(1.00)    -2.712   1.085
    *s          19.459   1.085
    *p          24.499   1.085
    *d           0.000   1.085

[...]

Si-setup:
  name: Silicon
  id: ee77bee481871cc2cb65ac61239ccafa
  Z: 14
  valence: 4
  core: 10
  charge: 0.0
  file: /Users/grantcates/anaconda/lib/python3.5/site-packages/gpaw/gpaw-setups-0.9.20000/Si.PBE.gz
  cutoffs: 1.06(comp), 1.86(filt), 2.06(core), lmax=2
  valence states:
                energy  radius
    3s(2.00)   -10.812   1.058
    3p(2.00)    -4.081   1.058
    *s          16.399   1.058
    *p          23.130   1.058
    *d           0.000   1.058

[...]

O-setup:
  name: Oxygen
  id: 32ecd46bf208036f09c70b0ec9a88b78
  Z: 8
  valence: 6
  core: 2
  charge: 0.0
  file: /Users/grantcates/anaconda/lib/python3.5/site-packages/gpaw/gpaw-setups-0.9.20000/O.PBE.gz
  cutoffs: 0.67(comp), 1.17(filt), 0.83(core), lmax=2
  valence states:
                energy  radius
    2s(2.00)   -23.961   0.688
    2p(4.00)    -9.029   0.598
    *s           3.251   0.688
    *p          18.182   0.598
    *d           0.000   0.619

  Using partial waves for O as LCAO basis

Reference energy: -393819.233490

Spin-paired calculation

Occupation numbers:
  Fermi-Dirac: width=0.1000 eV

Convergence criteria:
  Maximum total energy change: 0.0005 eV / electron
  Maximum integral of absolute density change: 0.0001 electrons
  Maximum integral of absolute eigenstate change: 4e-08 eV^2
  Maximum number of iterations: 333

Symmetries present (total): 1

  ( 1  0  0)
  ( 0  1  0)
  ( 0  0  1)

1 k-point (Gamma)
1 k-point in the irreducible part of the Brillouin zone
       k-points in crystal coordinates                weights
   0:     0.00000000    0.00000000    0.00000000          1/1

Eigensolver
   Davidson(niter=1, smin=None, normalize=True)

Densities:
  Coarse grid: 40*40*92 grid
  Fine grid: 80*80*184 grid
  Total Charge: 0.000000

Density mixing:
  Method: separate
  Backend: pulay
  Linear mixing parameter: 0.05
  Mixing with 5 old densities
  Damping of long wave oscillations: 50

Hamiltonian:
  XC and Coulomb potentials evaluated on a 80*80*184 grid
  Using the PBE Exchange-Correlation functional
  Interpolation: tri-quintic (5. degree polynomial)
  Poisson solver: Jacobi solver with 4 multi-grid levels
    Coarsest grid: 10 x 10 x 23 points
    Stencil: 8*3+1=25 point O(h^6) finite-difference Laplacian
    Max iterations: 1000
    Tolerance: 2.000000e-10

Total number of cores used: 1

Number of atoms: 116
Number of atomic orbitals: 464
Number of bands in calculation: 464
Bands to converge: occupied states only
Number of valence electrons: 576

... initialized

Initializing position-dependent things.

Density initialized from atomic densities
Creating initial wave functions:
  464 bands from LCAO basis set

                    O
             O
                 AlO     O
           Be        OBe       O
              OSi       O  Al O
           O           OiBeO  Si
              Si O          O
              O  O   Si       O  O
                 Al OO O      Si
           BeO        Be   AO
            Si     O  Si O
                    O    BeSi  O
             OO   Si    O
                   OO Si O      Si
           Be    Al   Be       O
               Si    O  O  Al
           O  O        Oi  O  O
                 O       Be O Si
              Si O   Si          O
              O  Al OO        Si
           BeO        BO
             O     O  Si O AO
            Si           BeSi  O
                  Si    O
              O     O           Si
                      Si       O

Positions:
   0 Be     4.604000    0.000000    2.297000    ( 0.0000,  0.0000,  0.0000)
   1 Be     4.604000    0.000000    6.891001    ( 0.0000,  0.0000,  0.0000)
   2 Be    -2.302000    3.987181    2.297000    ( 0.0000,  0.0000,  0.0000)
   3 Be    -2.302000    3.987181    6.891001    ( 0.0000,  0.0000,  0.0000)
   4 Be     2.302000    3.987181    2.297000    ( 0.0000,  0.0000,  0.0000)
   5 Be     2.302000    3.987181    6.891001    ( 0.0000,  0.0000,  0.0000)
   6 Al     0.000000    5.316242    2.297000    ( 0.0000,  0.0000,  0.0000)
   7 Al     4.604000    2.658121    6.891001    ( 0.0000,  0.0000,  0.0000)
   8 Al     4.604000    2.658121    2.297000    ( 0.0000,  0.0000,  0.0000)
   9 Al     0.000000    5.316242    6.891001    ( 0.0000,  0.0000,  0.0000)
  10 Si     3.038655    0.921267    0.000000    ( 0.0000,  0.0000,  0.0000)
  11 Si     1.565346    7.053097    0.000000    ( 0.0000,  0.0000,  0.0000)
  12 Si     6.890834    2.170919    0.000000    ( 0.0000,  0.0000,  0.0000)
  13 Si    -2.286833    5.803444    0.000000    ( 0.0000,  0.0000,  0.0000)
  14 Si     3.882513    4.882177    0.000000    ( 0.0000,  0.0000,  0.0000)
  15 Si     0.721487    3.092185    0.000000    ( 0.0000,  0.0000,  0.0000)
  16 Si    -0.721487    3.092185    4.594000    ( 0.0000,  0.0000,  0.0000)
  17 Si     5.325488    4.882177    4.594000    ( 0.0000,  0.0000,  0.0000)
  18 Si    -1.565346    7.053097    4.594000    ( 0.0000,  0.0000,  0.0000)
  19 Si     6.169345    0.921267    4.594000    ( 0.0000,  0.0000,  0.0000)
  20 Si     2.286833    5.803444    4.594000    ( 0.0000,  0.0000,  0.0000)
  21 Si     2.317168    2.170919    4.594000    ( 0.0000,  0.0000,  0.0000)
  22 O      1.757425    1.873574    0.000000    ( 0.0000,  0.0000,  0.0000)
  23 O      2.846575    6.100789    0.000000    ( 0.0000,  0.0000,  0.0000)
  24 O      6.706725    0.585188    0.000000    ( 0.0000,  0.0000,  0.0000)
  25 O     -2.102725    7.389175    0.000000    ( 0.0000,  0.0000,  0.0000)
  26 O      5.347852    5.515600    0.000000    ( 0.0000,  0.0000,  0.0000)
  27 O     -0.743851    2.458762    0.000000    ( 0.0000,  0.0000,  0.0000)
  28 O      0.743850    2.458762    4.594000    ( 0.0000,  0.0000,  0.0000)
  29 O      3.860150    5.515600    4.594000    ( 0.0000,  0.0000,  0.0000)
  30 O     -2.846575    6.100789    4.594000    ( 0.0000,  0.0000,  0.0000)
  31 O      7.450576    1.873574    4.594000    ( 0.0000,  0.0000,  0.0000)
  32 O      2.102724    7.389175    4.594000    ( 0.0000,  0.0000,  0.0000)
  33 O      2.501276    0.585188    4.594000    ( 0.0000,  0.0000,  0.0000)
  34 O      3.926287    1.156973    1.343200    ( 0.0000,  0.0000,  0.0000)
  35 O      0.677713    6.817388    7.844801    ( 0.0000,  0.0000,  0.0000)
  36 O      6.242889    2.821778    1.343200    ( 0.0000,  0.0000,  0.0000)
  37 O     -1.638888    5.152586    7.844801    ( 0.0000,  0.0000,  0.0000)
  38 O      3.642826    3.995612    1.343200    ( 0.0000,  0.0000,  0.0000)
  39 O      0.961175    3.978751    7.844801    ( 0.0000,  0.0000,  0.0000)
  40 O      0.677713    6.817388    1.343200    ( 0.0000,  0.0000,  0.0000)
  41 O      3.926287    1.156973    7.844801    ( 0.0000,  0.0000,  0.0000)
  42 O     -1.638888    5.152586    1.343200    ( 0.0000,  0.0000,  0.0000)
  43 O      6.242889    2.821778    7.844801    ( 0.0000,  0.0000,  0.0000)
  44 O      0.961175    3.978751    1.343200    ( 0.0000,  0.0000,  0.0000)
  45 O      3.642826    3.995612    7.844801    ( 0.0000,  0.0000,  0.0000)
  46 O     -0.961175    3.978751    3.250800    ( 0.0000,  0.0000,  0.0000)
  47 O      5.565176    3.995612    5.937201    ( 0.0000,  0.0000,  0.0000)
  48 O     -0.677713    6.817388    3.250800    ( 0.0000,  0.0000,  0.0000)
  49 O      5.281713    1.156973    5.937201    ( 0.0000,  0.0000,  0.0000)
  50 O      1.638888    5.152586    3.250800    ( 0.0000,  0.0000,  0.0000)
  51 O      2.965112    2.821778    5.937201    ( 0.0000,  0.0000,  0.0000)
  52 O      5.565176    3.995612    3.250800    ( 0.0000,  0.0000,  0.0000)
  53 O     -0.961175    3.978751    5.937201    ( 0.0000,  0.0000,  0.0000)
  54 O      5.281713    1.156973    3.250800    ( 0.0000,  0.0000,  0.0000)
  55 O     -0.677713    6.817388    5.937201    ( 0.0000,  0.0000,  0.0000)
  56 O      2.965112    2.821778    3.250800    ( 0.0000,  0.0000,  0.0000)
  57 O      1.638888    5.152586    5.937201    ( 0.0000,  0.0000,  0.0000)
  58 Be     4.604000    0.000000   11.485000    ( 0.0000,  0.0000,  0.0000)
  59 Be     4.604000    0.000000   16.079001    ( 0.0000,  0.0000,  0.0000)
[...]
 101 O      6.242889    2.821778   17.032801    ( 0.0000,  0.0000,  0.0000)
 102 O      0.961175    3.978751   10.531200    ( 0.0000,  0.0000,  0.0000)
 103 O      3.642826    3.995612   17.032801    ( 0.0000,  0.0000,  0.0000)
 104 O     -0.961175    3.978751   12.438800    ( 0.0000,  0.0000,  0.0000)
 105 O      5.565176    3.995612   15.125201    ( 0.0000,  0.0000,  0.0000)
 106 O     -0.677713    6.817388   12.438800    ( 0.0000,  0.0000,  0.0000)
 107 O      5.281713    1.156973   15.125201    ( 0.0000,  0.0000,  0.0000)
 108 O      1.638888    5.152586   12.438800    ( 0.0000,  0.0000,  0.0000)
 109 O      2.965112    2.821778   15.125201    ( 0.0000,  0.0000,  0.0000)
 110 O      5.565176    3.995612   12.438800    ( 0.0000,  0.0000,  0.0000)
 111 O     -0.961175    3.978751   15.125201    ( 0.0000,  0.0000,  0.0000)
 112 O      5.281713    1.156973   12.438800    ( 0.0000,  0.0000,  0.0000)
 113 O     -0.677713    6.817388   15.125201    ( 0.0000,  0.0000,  0.0000)
 114 O      2.965112    2.821778   12.438800    ( 0.0000,  0.0000,  0.0000)
 115 O      1.638888    5.152586   15.125201    ( 0.0000,  0.0000,  0.0000)

Unit cell:
           periodic     x           y           z      points  spacing
  1. axis:    yes    9.210000    0.000000    0.000000    40     0.1994
  2. axis:    yes   -4.605000    7.976094    0.000000    40     0.1994
  3. axis:    yes    0.000000    0.000000   18.380000    92     0.1998

  Lengths:   9.210000   9.210000  18.380000
  Angles:   90.000000  90.000000 120.000000

[...]
  7 Al    0.00292    0.00685    0.00286
  8 Al    0.00293    0.00686    0.00424
  9 Al    0.00444    0.00586    0.00531
 10 Si    0.20860    0.05760   -0.09762
 11 Si   -0.21370   -0.05984   -0.09762
 12 Si   -0.10176    0.16296   -0.09765
 13 Si    0.09774   -0.16512   -0.09764
 14 Si   -0.03392   -0.21900   -0.09764
 15 Si    0.03317    0.22102   -0.09764
 16 Si   -0.03849    0.15678    0.00447
 17 Si    0.03914   -0.16219    0.00443
 18 Si    0.13982    0.00748    0.00442
 19 Si   -0.13961   -0.01213    0.00445
 20 Si   -0.13296   -0.09941    0.00446
 21 Si    0.13499    0.09979    0.00447
 22 O    -0.10381   -0.11489    0.00231
 23 O     0.09682    0.09564    0.00232
 24 O     0.15329   -0.11878    0.00233
 25 O    -0.16232    0.11784    0.00233
 26 O     0.02720    0.17703    0.00233
 27 O    -0.02219   -0.18573    0.00234
 28 O    -0.04798   -0.14863   -0.00401
 29 O     0.03494    0.13305   -0.00407
 30 O    -0.18153    0.07584   -0.00401
 31 O     0.18528   -0.08407   -0.00399
 32 O     0.14216    0.11276   -0.00404
 33 O    -0.15210   -0.11253   -0.00400
 34 O    -0.01843    0.07494    0.15865
 35 O     0.01167   -0.05971   -0.16850
 36 O    -0.06933   -0.00167    0.16052
 37 O     0.07446   -0.00600   -0.16984
 38 O     0.08249   -0.08670    0.16237
 39 O    -0.08620    0.08141   -0.16673
 40 O     0.01331   -0.06418    0.16090
 41 O    -0.01684    0.07153   -0.16472
 42 O     0.07661   -0.00294    0.16344
 43 O    -0.06627    0.00194   -0.16806
 44 O    -0.08994    0.08185    0.16077
 45 O     0.07874   -0.08627   -0.16874
 46 O     0.07148    0.02119   -0.16761
 47 O    -0.06480   -0.01874    0.16678
 48 O     0.03372   -0.05827   -0.16974
 49 O    -0.03762    0.06593    0.16920
 50 O    -0.11540    0.02636   -0.17179
 51 O     0.11601   -0.04002    0.16735
 52 O    -0.05913   -0.02005   -0.17062
 53 O     0.07613    0.01957    0.16498
 54 O    -0.04131    0.06291   -0.17217
 55 O     0.02986   -0.06254    0.16585
 56 O     0.11494   -0.03522   -0.16996
 57 O    -0.11626    0.03109    0.16888
 58 Be    0.00673   -0.01764    0.00310
 59 Be    0.00674   -0.01762    0.01078
[...]
101 O    -0.02258   -0.03782   -0.06226
102 O    -0.09468    0.08049    0.16814
103 O     0.09144   -0.02900   -0.06095
104 O     0.06871    0.02155   -0.16077
105 O    -0.07032   -0.02018    0.16674
106 O     0.03539   -0.05507   -0.16459
107 O    -0.03629    0.07009    0.16943
108 O    -0.11422    0.02362   -0.16502
109 O     0.11945   -0.04297    0.16783
110 O    -0.05554   -0.01989   -0.16546
111 O     0.08041    0.02103    0.16538
112 O    -0.04312    0.06048   -0.16550
113 O     0.02834   -0.06807    0.16584
114 O     0.11387   -0.03267   -0.16301
115 O    -0.11920    0.03427    0.16914

System changes: positions

[...]

Density initialized from wave functions

[...]

System changes: positions

Initializing position-dependent things.

Density initialized from wave functions

                    O
             O
                 AlO     O
           Be        OBe       O
              OSi       O  Al O
           O           OiBeO  Si
              Si O          O
              O  O   Si       O  O
                 Al OO O      Si
           BeO        Be   AO
            Si     O  Si O
                    O    BeSi  O
             OO   Si    O
                   OO Si O      Si
           Be    Al   Be       O
               Si    O  O  Al O
           O  O        Oi  O
                 O       Be O Si
              Si O   Si          O
              O  Al OO        Si
           BeO        BO
             O     O  Si O AO
            Si           BeSi  O
                  Si    O
              O     O           Si
                      Si       O

Positions:
   0 Be     4.604291   -0.000711    2.296566    ( 0.0000,  0.0000,  0.0000)
   1 Be     4.604288   -0.000712    6.891231    ( 0.0000,  0.0000,  0.0000)
   2 Be    -2.302760    3.987077    2.296977    ( 0.0000,  0.0000,  0.0000)
   3 Be    -2.302763    3.987081    6.890821    ( 0.0000,  0.0000,  0.0000)
   4 Be     2.301993    3.987169    2.296773    ( 0.0000,  0.0000,  0.0000)
   5 Be     2.301993    3.987170    6.891032    ( 0.0000,  0.0000,  0.0000)
   6 Al    -0.000225    5.316604    2.296731    ( 0.0000,  0.0000,  0.0000)
   7 Al     4.604431    2.658115    6.890981    ( 0.0000,  0.0000,  0.0000)
   8 Al     4.604430    2.658115    2.296793    ( 0.0000,  0.0000,  0.0000)
   9 Al    -0.000225    5.316604    6.891043    ( 0.0000,  0.0000,  0.0000)
  10 Si     3.043409    0.923790   -0.001336    ( 0.0000,  0.0000,  0.0000)
  11 Si     1.560432    7.050488   -0.001358    ( 0.0000,  0.0000,  0.0000)
  12 Si     6.887454    2.173600   -0.001358    ( 0.0000,  0.0000,  0.0000)
  13 Si    -2.283341    5.800571   -0.001326    ( 0.0000,  0.0000,  0.0000)
  14 Si     3.882750    4.876411   -0.001327    ( 0.0000,  0.0000,  0.0000)
  15 Si     0.721243    3.097741   -0.001336    ( 0.0000,  0.0000,  0.0000)
  16 Si    -0.721524    3.097277    4.594018    ( 0.0000,  0.0000,  0.0000)
  17 Si     5.325522    4.876910    4.593999    ( 0.0000,  0.0000,  0.0000)
  18 Si    -1.561649    7.051544    4.593999    ( 0.0000,  0.0000,  0.0000)
  19 Si     6.165418    0.922823    4.594017    ( 0.0000,  0.0000,  0.0000)
  20 Si     2.281911    5.801033    4.594013    ( 0.0000,  0.0000,  0.0000)
  21 Si     2.321904    2.173221    4.594014    ( 0.0000,  0.0000,  0.0000)
  22 O      1.751725    1.868625   -0.000225    ( 0.0000,  0.0000,  0.0000)
  23 O      2.851860    6.105065   -0.000226    ( 0.0000,  0.0000,  0.0000)
  24 O      6.715583    0.581179   -0.000224    ( 0.0000,  0.0000,  0.0000)
  25 O     -2.112062    7.393034   -0.000226    ( 0.0000,  0.0000,  0.0000)
  26 O      5.346717    5.524444   -0.000225    ( 0.0000,  0.0000,  0.0000)
  27 O     -0.742675    2.449742   -0.000222    ( 0.0000,  0.0000,  0.0000)
  28 O      0.742361    2.451079    4.593871    ( 0.0000,  0.0000,  0.0000)
  29 O      3.861263    5.522609    4.593856    ( 0.0000,  0.0000,  0.0000)
  30 O     -2.854765    6.106720    4.593877    ( 0.0000,  0.0000,  0.0000)
  31 O      7.458869    1.867157    4.593865    ( 0.0000,  0.0000,  0.0000)
  32 O      2.111285    7.392721    4.593858    ( 0.0000,  0.0000,  0.0000)
  33 O      2.492557    0.581598    4.593889    ( 0.0000,  0.0000,  0.0000)
  34 O      3.924108    1.160012    1.348457    ( 0.0000,  0.0000,  0.0000)
  35 O      0.679538    6.814864    7.838960    ( 0.0000,  0.0000,  0.0000)
  36 O      6.240767    2.820631    1.347689    ( 0.0000,  0.0000,  0.0000)
  37 O     -1.636490    5.153327    7.839906    ( 0.0000,  0.0000,  0.0000)
  38 O      3.647082    3.992944    1.347680    ( 0.0000,  0.0000,  0.0000)
  39 O      0.956782    3.981229    7.839851    ( 0.0000,  0.0000,  0.0000)
  40 O      0.679672    6.814773    1.348521    ( 0.0000,  0.0000,  0.0000)
  41 O      3.924259    1.159960    7.839113    ( 0.0000,  0.0000,  0.0000)
  42 O     -1.636505    5.153497    1.347698    ( 0.0000,  0.0000,  0.0000)
  43 O      6.240794    2.820806    7.839805    ( 0.0000,  0.0000,  0.0000)
  44 O      0.956641    3.981139    1.347678    ( 0.0000,  0.0000,  0.0000)
  45 O      3.646934    3.992853    7.839866    ( 0.0000,  0.0000,  0.0000)
  46 O     -0.957565    3.978475    3.244908    ( 0.0000,  0.0000,  0.0000)
  47 O      5.561872    3.996071    5.943359    ( 0.0000,  0.0000,  0.0000)
  48 O     -0.677526    6.815052    3.245631    ( 0.0000,  0.0000,  0.0000)
  49 O      5.281419    1.159503    5.942541    ( 0.0000,  0.0000,  0.0000)
  50 O      1.634411    5.154797    3.245664    ( 0.0000,  0.0000,  0.0000)
  51 O      2.969434    2.818952    5.942523    ( 0.0000,  0.0000,  0.0000)
  52 O      5.562060    3.995927    3.244788    ( 0.0000,  0.0000,  0.0000)
  53 O     -0.957411    3.978300    5.943306    ( 0.0000,  0.0000,  0.0000)
  54 O      5.281182    1.159447    3.245690    ( 0.0000,  0.0000,  0.0000)
  55 O     -0.677749    6.814946    5.942522    ( 0.0000,  0.0000,  0.0000)
  56 O      2.969485    2.819181    3.245658    ( 0.0000,  0.0000,  0.0000)
  57 O      1.634464    5.155032    5.942524    ( 0.0000,  0.0000,  0.0000)
  58 Be     4.604297   -0.000712   11.484883    ( 0.0000,  0.0000,  0.0000)
  59 Be     4.604286   -0.000711   16.080100    ( 0.0000,  0.0000,  0.0000)
[...]
 101 O      6.241281    2.820279   17.029516    ( 0.0000,  0.0000,  0.0000)
 102 O      0.956477    3.981049   10.536603    ( 0.0000,  0.0000,  0.0000)
 103 O      3.647160    3.993581   17.029587    ( 0.0000,  0.0000,  0.0000)
 104 O     -0.957622    3.978564   12.433265    ( 0.0000,  0.0000,  0.0000)
 105 O      5.561721    3.995896   15.131754    ( 0.0000,  0.0000,  0.0000)
 106 O     -0.677442    6.815094   12.433940    ( 0.0000,  0.0000,  0.0000)
 107 O      5.281349    1.159668   15.131000    ( 0.0000,  0.0000,  0.0000)
 108 O      1.634380    5.154700   12.434015    ( 0.0000,  0.0000,  0.0000)
 109 O      2.969654    2.818929   15.130932    ( 0.0000,  0.0000,  0.0000)
 110 O      5.562127    3.995864   12.433083    ( 0.0000,  0.0000,  0.0000)
 111 O     -0.957312    3.978456   15.131751    ( 0.0000,  0.0000,  0.0000)
 112 O      5.281086    1.159424   12.434082    ( 0.0000,  0.0000,  0.0000)
 113 O     -0.677674    6.814724   15.130920    ( 0.0000,  0.0000,  0.0000)
 114 O      2.969522    2.819278   12.433987    ( 0.0000,  0.0000,  0.0000)
 115 O      1.634260    5.155060   15.130949    ( 0.0000,  0.0000,  0.0000)

Unit cell:
           periodic     x           y           z      points  spacing
  1. axis:    yes    9.210000    0.000000    0.000000    40     0.1994
  2. axis:    yes   -4.605000    7.976094    0.000000    40     0.1994
  3. axis:    yes    0.000000    0.000000   18.380000    92     0.1998

  Lengths:   9.210000   9.210000  18.380000
  Angles:   90.000000  90.000000 120.000000

Effective grid spacing dv^(1/3) = 0.2093

                     log10-error:    total        iterations:
           time      wfs    density  energy       fermi  poisson
iter:   1  18:38:24  -1.42   +inf  -917.268341    0      12
iter:   2  18:39:01  -1.89  -2.54  -917.277694    0      5
iter:   3  18:39:38  -2.94  -2.58  -917.229796    0      8
iter:   4  18:40:16  -3.04  -2.83  -917.215453    0      10
iter:   5  18:40:53  -3.24  -3.12  -917.214220    0      7
iter:   6  18:41:31  -3.98  -3.16  -917.212886    0      6
iter:   7  18:42:12  -4.25  -3.38  -917.213197    0      5
iter:   8  18:42:48  -4.31  -3.51  -917.212578    0      5
iter:   9  18:43:25  -4.50  -3.60  -917.211166    0      6
iter:  10  18:44:01  -4.99  -4.11  -917.210843    0      4
iter:  11  18:44:38  -5.27  -4.27  -917.212022    0      2
iter:  12  18:45:15  -5.95  -4.29  -917.212202    0      4
iter:  13  18:45:51  -6.08  -4.37  -917.211018    0      4
iter:  14  18:46:29  -6.26  -4.67  -917.212192    0      2
iter:  15  18:47:10  -7.04  -4.84  -917.212204    0      2
iter:  16  18:47:47  -7.16  -4.90  -917.211613    0      3
iter:  17  18:48:23  -7.28  -5.02  -917.212374    0      2
iter:  18  18:48:59  -7.47  -5.27  -917.211499    0      1

Converged after 18 iterations.

Dipole moment: (2.240516, 3.881043, -78.074617) |e|*Ang

Energy contributions relative to reference atoms: (reference = -393819.233490)

Kinetic:       +1238.293766
Potential:     -1218.823040
External:        +0.000000
XC:            -1000.584367
Entropy (-ST):   -0.000000
Local:          +63.902142
Free energy:   -917.211499
Extrapolated:  -917.211499

Fermi level: 4.65748

 Band  Eigenvalues  Occupancy
    0    -17.38373    2.00000
    1    -17.24758    2.00000
    2    -17.24557    2.00000
    3    -17.05718    2.00000
    4    -16.71683    2.00000
    5    -16.71631    2.00000
    6    -16.68260    2.00000
    7    -16.68038    2.00000
    8    -16.68015    2.00000
    9    -16.67831    2.00000
   10    -16.64300    2.00000
   11    -16.64205    2.00000
   12    -16.47587    2.00000
   13    -16.47379    2.00000
   14    -16.38388    2.00000
   15    -16.34625    2.00000
   16    -16.34434    2.00000
   17    -16.34374    2.00000
   18    -16.34203    2.00000
   19    -16.20173    2.00000
   20    -16.20018    2.00000
   21    -16.16497    2.00000
   22    -16.14949    2.00000
   23    -16.14691    2.00000
   24    -15.95164    2.00000
   25    -15.95053    2.00000
   26    -15.84130    2.00000
   27    -15.80459    2.00000
   28    -15.59715    2.00000
   29    -15.59598    2.00000
   30    -15.49620    2.00000
   31    -15.45670    2.00000
   32    -15.45561    2.00000
   33    -15.45483    2.00000
   34    -15.45393    2.00000
   35    -15.40535    2.00000
   36    -15.40345    2.00000
   37    -15.40165    2.00000
   38    -15.40026    2.00000
   39    -15.40017    2.00000
   40    -15.39437    2.00000
   41    -15.34331    2.00000
   42    -15.34141    2.00000
   43    -15.31209    2.00000
   44    -15.31114    2.00000
   45    -15.31023    2.00000
   46    -15.30931    2.00000
   47    -15.26120    2.00000
   48    -15.26042    2.00000
   49    -15.13000    2.00000
   50    -15.12985    2.00000
   51    -15.11426    2.00000
   52    -15.06302    2.00000
   53    -15.06100    2.00000
   54    -15.03232    2.00000
   55    -15.03042    2.00000
   56    -15.01449    2.00000
   57    -15.01428    2.00000
   58    -15.01271    2.00000
   59    -15.01248    2.00000
[...]
  449     16.32187    0.00000
  450     16.32465    0.00000
  451     16.32768    0.00000
  452     16.35793    0.00000
  453     16.44858    0.00000
  454     16.45694    0.00000
  455     16.61714    0.00000
  456     16.61951    0.00000
  457     16.67638    0.00000
  458     16.69376    0.00000
  459     16.70832    0.00000
  460     16.74393    0.00000
  461     16.94565    0.00000
  462     16.95523    0.00000
  463     16.95838    0.00000

Forces in eV/Ang:
  0 Be    0.00010    0.00121   -0.00582
  1 Be   -0.00011    0.00117    0.00302
  2 Be    0.00105    0.00053   -0.00340
  3 Be    0.00096    0.00074    0.00065
  4 Be   -0.00123   -0.00211   -0.00450
  5 Be   -0.00119   -0.00211    0.00173
  6 Al   -0.01123    0.00289   -0.00456
  7 Al    0.00816   -0.00823    0.00267
  8 Al    0.00819   -0.00834   -0.00561
  9 Al   -0.01140    0.00283    0.00160
 10 Si   -0.07009   -0.00485    0.01361
 11 Si    0.07136    0.00233    0.01317
 12 Si    0.03057   -0.06628    0.01323
 13 Si   -0.03028    0.06479    0.01397
 14 Si    0.03592    0.05667    0.01330
 15 Si   -0.03442   -0.05932    0.01304
 16 Si    0.02894   -0.05937   -0.00191
 17 Si   -0.03193    0.05915   -0.00208
 18 Si   -0.06877   -0.00742   -0.00192
 19 Si    0.06720    0.00689   -0.00163
 20 Si    0.02823    0.05607   -0.00207
 21 Si   -0.03152   -0.05616   -0.00214
 22 O    -0.04466   -0.00107   -0.00560
 23 O     0.04887    0.00527   -0.00562
 24 O     0.06771   -0.01568   -0.00551
 25 O    -0.06649    0.01403   -0.00553
 26 O    -0.02761    0.05981   -0.00553
 27 O     0.02346   -0.04976   -0.00544
 28 O     0.02253   -0.03795   -0.00016
 29 O    -0.02069    0.04457   -0.00063
 30 O    -0.04746    0.05024    0.00002
 31 O     0.04480   -0.04973    0.00014
 32 O     0.06461    0.00563   -0.00026
 33 O    -0.05393   -0.00467    0.00029
 34 O    -0.04070   -0.00918   -0.02639
 35 O     0.03957    0.00390    0.02436
 36 O     0.01847   -0.02761   -0.03913
 37 O    -0.01484    0.02341    0.03830
 38 O     0.01588    0.01657   -0.03862
 39 O    -0.01415   -0.01787    0.03399
 40 O     0.04148    0.00762   -0.02738
 41 O    -0.03815   -0.00600    0.02449
 42 O    -0.01805    0.02470   -0.03981
 43 O     0.01549   -0.02664    0.03658
 44 O    -0.01376   -0.02054   -0.03808
 45 O     0.01622    0.01389    0.03477
 46 O     0.01305   -0.03741    0.02253
 47 O    -0.01406    0.04187   -0.02233
 48 O    -0.03146    0.00118    0.03463
 49 O     0.03263   -0.00388   -0.03518
 50 O     0.00474    0.02086    0.03331
 51 O    -0.01236   -0.02344   -0.03338
 52 O    -0.01523    0.03748    0.02258
 53 O     0.01244   -0.04159   -0.02150
 54 O     0.02837   -0.00218    0.03619
 55 O    -0.03520    0.00304   -0.03413
 56 O    -0.00929   -0.02096    0.03252
 57 O     0.00801    0.02346   -0.03403
 58 Be    0.00027    0.00117    0.00183
 59 Be   -0.00014    0.00101    0.00959
[...]
101 O     0.01029   -0.02164    0.02850
102 O    -0.01399   -0.02320   -0.03196
103 O     0.01440    0.00845    0.02548
104 O     0.01458   -0.03534    0.02758
105 O    -0.01124    0.04226   -0.01316
106 O    -0.03059   -0.00064    0.03943
107 O     0.03230   -0.00611   -0.02527
108 O     0.00298    0.02115    0.03722
109 O    -0.01277   -0.02186   -0.02556
110 O    -0.01739    0.03544    0.02716
111 O     0.00956   -0.04252   -0.01159
112 O     0.02754   -0.00052    0.04149
113 O    -0.03393    0.00508   -0.02537
114 O    -0.00752   -0.02145    0.03639
115 O     0.00856    0.02160   -0.02594