User:   st_st159367@n0712
Date:   Fri Nov  9 23:06:36 2018
Arch:   x86_64
Pid:    21926
Python: 3.5.0
gpaw:   /opt/bwhpc/common/chem/gpaw/1.4.0/gpaw-1.4.0/lib/python3.5/site-packages/gpaw
_gpaw:  /opt/bwhpc/common/chem/gpaw/1.4.0/gpaw-1.4.0/bin/gpaw-python
ase:    /opt/bwhpc/common/chem/gpaw/1.4.0/ase-3.16.2/ase (version 3.16.2)
numpy:  /opt/bwhpc/common/numlib/python_numpy/1.14.0-python-3.5.0-mkl-2017/lib/python/numpy-1.14.0-py3.5-linux-x86_64.egg/numpy (version 1.14.0)
scipy:  /opt/bwhpc/common/numlib/python_scipy/1.1.0-python_numpy-1.14.0-python-3.5.0-mkl-2017/lib/python/scipy-1.1.0-py3.5-linux-x86_64.egg/scipy (version 1.1.0)
units:  Angstrom and eV
cores:  16

Input parameters:
  h: 0.2
  kpts: {density: 2.0}
  xc: PBE

System changes: positions, numbers, cell, pbc, initial_charges, initial_magmoms

Initialize ...

Be-setup:
  name: Beryllium
  id: 05824862ae4eb59fd0e1af4fca8e65d4
  Z: 4
  valence: 2
  core: 2
  charge: 0.0
  file: /opt/bwhpc/common/chem/gpaw/1.4.0//gpaw-setups-0.9.20000/Be.PBE.gz
  cutoffs: 0.79(comp), 1.42(filt), 1.77(core), lmax=2
  valence states:
                energy  radius
    2s(2.00)    -5.610   0.794
    2p(0.00)    -2.018   0.794
    *s          21.602   0.794

  Using partial waves for Be as LCAO basis

Al-setup:
  name: Aluminium
  id: 0292cae29f5d6237e50f6abdd43a7bdd
  Z: 13
  valence: 3
  core: 10
  charge: 0.0
  file: /opt/bwhpc/common/chem/gpaw/1.4.0//gpaw-setups-0.9.20000/Al.PBE.gz
  cutoffs: 1.08(comp), 1.91(filt), 2.36(core), lmax=2
  valence states:
                energy  radius
    3s(2.00)    -7.753   1.085
    3p(1.00)    -2.712   1.085
    *s          19.459   1.085
    *p          24.499   1.085
    *d           0.000   1.085

[...]

Si-setup:
  name: Silicon
  id: ee77bee481871cc2cb65ac61239ccafa
  Z: 14
  valence: 4
  core: 10
  charge: 0.0
  file: /opt/bwhpc/common/chem/gpaw/1.4.0//gpaw-setups-0.9.20000/Si.PBE.gz
  cutoffs: 1.06(comp), 1.86(filt), 2.06(core), lmax=2
  valence states:
                energy  radius
    3s(2.00)   -10.812   1.058
    3p(2.00)    -4.081   1.058
    *s          16.399   1.058
    *p          23.130   1.058
    *d           0.000   1.058

[...]

O-setup:
  name: Oxygen
  id: 32ecd46bf208036f09c70b0ec9a88b78
  Z: 8
  valence: 6
  core: 2
  charge: 0.0
  file: /opt/bwhpc/common/chem/gpaw/1.4.0//gpaw-setups-0.9.20000/O.PBE.gz
  cutoffs: 0.67(comp), 1.17(filt), 0.83(core), lmax=2
  valence states:
                energy  radius
    2s(2.00)   -23.961   0.688
    2p(4.00)    -9.029   0.598
    *s           3.251   0.688
    *p          18.182   0.598
    *d           0.000   0.619

  Using partial waves for O as LCAO basis

Reference energy: -196909.616745

Spin-paired calculation

Occupation numbers:
  Fermi-Dirac: width=0.1000 eV

Convergence criteria:
  Maximum total energy change: 0.0005 eV / electron
  Maximum integral of absolute density change: 0.0001 electrons
  Maximum integral of absolute eigenstate change: 4e-08 eV^2
  Maximum number of iterations: 333

Symmetries present (total): 1

  ( 1  0  0)
  ( 0  1  0)
  ( 0  0  1)

4 k-points: 2 x 2 x 1 Monkhorst-Pack grid
2 k-points in the irreducible part of the Brillouin zone
       k-points in crystal coordinates                weights
   0:     0.25000000   -0.25000000    0.00000000          2/4
   1:     0.25000000    0.25000000    0.00000000          2/4

Eigensolver
   Davidson(niter=1, smin=None, normalize=True)

Densities:
  Coarse grid: 40*40*92 grid
  Fine grid: 80*80*184 grid
  Total Charge: 0.000000

Density mixing:
  Method: separate
  Backend: pulay
  Linear mixing parameter: 0.05
  Mixing with 5 old densities
  Damping of long wave oscillations: 50

Hamiltonian:
  XC and Coulomb potentials evaluated on a 80*80*184 grid
  Using the PBE Exchange-Correlation functional
  Interpolation: tri-quintic (5. degree polynomial)
  Poisson solver: Jacobi solver with 4 multi-grid levels
    Coarsest grid: 10 x 10 x 23 points
    Stencil: 8*3+1=25 point O(h^6) finite-difference Laplacian
    Max iterations: 1000
    Tolerance: 2.000000e-10

Total number of cores used: 16
Parallelization over k-points: 2
Domain decomposition: 1 x 2 x 4

Number of atoms: 58
Number of atomic orbitals: 232
Number of bands in calculation: 232
Bands to converge: occupied states only
Number of valence electrons: 288

... initialized

Initializing position-dependent things.

Density initialized from atomic densities
Creating initial wave functions:
  232 bands from LCAO basis set

                    O
             O
                 AlO     O
           Be    O    Be       O
              OSi    O  O  Al O
           O           Oi  O  Si
                 O       Be O
              Si O   Si          O
              O  Al OO O      Si
           BeO        Be    O
             O     O  Si O Al
            Si           BeSi  O
                  Si    O
              O     O           Si
                      Si       O

Positions:
   0 Be     4.604000    0.000000    2.297000    ( 0.0000,  0.0000,  0.0000)
   1 Be     4.604000    0.000000    6.891000    ( 0.0000,  0.0000,  0.0000)
   2 Be    -2.302000    3.987181    2.297000    ( 0.0000,  0.0000,  0.0000)
   3 Be    -2.302000    3.987181    6.891000    ( 0.0000,  0.0000,  0.0000)
   4 Be     2.302000    3.987181    2.297000    ( 0.0000,  0.0000,  0.0000)
   5 Be     2.302000    3.987181    6.891000    ( 0.0000,  0.0000,  0.0000)
   6 Al     0.000000    5.316242    2.297000    ( 0.0000,  0.0000,  0.0000)
   7 Al     4.604000    2.658121    6.891000    ( 0.0000,  0.0000,  0.0000)
   8 Al     4.604000    2.658121    2.297000    ( 0.0000,  0.0000,  0.0000)
   9 Al     0.000000    5.316242    6.891000    ( 0.0000,  0.0000,  0.0000)
  10 Si     3.038655    0.921267    0.000000    ( 0.0000,  0.0000,  0.0000)
  11 Si     1.565346    7.053096    0.000000    ( 0.0000,  0.0000,  0.0000)
  12 Si     6.890833    2.170919    0.000000    ( 0.0000,  0.0000,  0.0000)
  13 Si    -2.286833    5.803443    0.000000    ( 0.0000,  0.0000,  0.0000)
  14 Si     3.882513    4.882177    0.000000    ( 0.0000,  0.0000,  0.0000)
  15 Si     0.721487    3.092186    0.000000    ( 0.0000,  0.0000,  0.0000)
  16 Si    -0.721487    3.092186    4.594000    ( 0.0000,  0.0000,  0.0000)
  17 Si     5.325487    4.882177    4.594000    ( 0.0000,  0.0000,  0.0000)
  18 Si    -1.565346    7.053096    4.594000    ( 0.0000,  0.0000,  0.0000)
  19 Si     6.169346    0.921267    4.594000    ( 0.0000,  0.0000,  0.0000)
  20 Si     2.286833    5.803443    4.594000    ( 0.0000,  0.0000,  0.0000)
  21 Si     2.317168    2.170919    4.594000    ( 0.0000,  0.0000,  0.0000)
  22 O      1.757425    1.873574    0.000000    ( 0.0000,  0.0000,  0.0000)
  23 O      2.846575    6.100788    0.000000    ( 0.0000,  0.0000,  0.0000)
  24 O      6.706724    0.585188    0.000000    ( 0.0000,  0.0000,  0.0000)
  25 O     -2.102724    7.389174    0.000000    ( 0.0000,  0.0000,  0.0000)
  26 O      5.347851    5.515600    0.000000    ( 0.0000,  0.0000,  0.0000)
  27 O     -0.743851    2.458762    0.000000    ( 0.0000,  0.0000,  0.0000)
  28 O      0.743850    2.458762    4.594000    ( 0.0000,  0.0000,  0.0000)
  29 O      3.860150    5.515600    4.594000    ( 0.0000,  0.0000,  0.0000)
  30 O     -2.846575    6.100788    4.594000    ( 0.0000,  0.0000,  0.0000)
  31 O      7.450575    1.873574    4.594000    ( 0.0000,  0.0000,  0.0000)
  32 O      2.102724    7.389174    4.594000    ( 0.0000,  0.0000,  0.0000)
  33 O      2.501276    0.585188    4.594000    ( 0.0000,  0.0000,  0.0000)
  34 O      3.926287    1.156973    1.343200    ( 0.0000,  0.0000,  0.0000)
  35 O      0.677713    6.817388    7.844800    ( 0.0000,  0.0000,  0.0000)
  36 O      6.242888    2.821778    1.343200    ( 0.0000,  0.0000,  0.0000)
  37 O     -1.638888    5.152585    7.844800    ( 0.0000,  0.0000,  0.0000)
  38 O      3.642825    3.995611    1.343200    ( 0.0000,  0.0000,  0.0000)
  39 O      0.961175    3.978751    7.844800    ( 0.0000,  0.0000,  0.0000)
  40 O      0.677713    6.817388    1.343200    ( 0.0000,  0.0000,  0.0000)
  41 O      3.926287    1.156973    7.844800    ( 0.0000,  0.0000,  0.0000)
  42 O     -1.638888    5.152585    1.343200    ( 0.0000,  0.0000,  0.0000)
  43 O      6.242888    2.821778    7.844800    ( 0.0000,  0.0000,  0.0000)
  44 O      0.961175    3.978751    1.343200    ( 0.0000,  0.0000,  0.0000)
  45 O      3.642825    3.995611    7.844800    ( 0.0000,  0.0000,  0.0000)
  46 O     -0.961175    3.978751    3.250800    ( 0.0000,  0.0000,  0.0000)
  47 O      5.565175    3.995611    5.937200    ( 0.0000,  0.0000,  0.0000)
  48 O     -0.677713    6.817388    3.250800    ( 0.0000,  0.0000,  0.0000)
  49 O      5.281713    1.156973    5.937200    ( 0.0000,  0.0000,  0.0000)
  50 O      1.638888    5.152585    3.250800    ( 0.0000,  0.0000,  0.0000)
  51 O      2.965112    2.821778    5.937200    ( 0.0000,  0.0000,  0.0000)
  52 O      5.565175    3.995611    3.250800    ( 0.0000,  0.0000,  0.0000)
  53 O     -0.961175    3.978751    5.937200    ( 0.0000,  0.0000,  0.0000)
  54 O      5.281713    1.156973    3.250800    ( 0.0000,  0.0000,  0.0000)
  55 O     -0.677713    6.817388    5.937200    ( 0.0000,  0.0000,  0.0000)
  56 O      2.965112    2.821778    3.250800    ( 0.0000,  0.0000,  0.0000)
  57 O      1.638888    5.152585    5.937200    ( 0.0000,  0.0000,  0.0000)

Unit cell:
           periodic     x           y           z      points  spacing
  1. axis:    yes    9.210000    0.000000    0.000000    40     0.1994
  2. axis:    yes   -4.605000    7.976094    0.000000    40     0.1994
  3. axis:    yes    0.000000    0.000000   18.380000    92     0.1998

  Lengths:   9.210000   9.210000  18.380000
  Angles:   90.000000  90.000000 120.000000

Effective grid spacing dv^(1/3) = 0.2093

                     log10-error:    total        iterations:
           time      wfs    density  energy       fermi  poisson
iter:   1  23:06:46  +1.80   +inf  -487.202742    2      52
iter:   2  23:06:50  +0.88   +inf  -494.135938    1
iter:   3  23:06:54  +0.18   +inf  -495.886955    1
iter:   4  23:06:59  -0.04  -0.69  -462.053964    6      42
iter:   5  23:07:05  +0.72  -0.74  -839.865419    35     53
iter:   6  23:07:11  +0.82  -0.49  -756.055163    35     39
iter:   7  23:07:15  +0.21  -0.54  -760.742548    3      18
iter:   8  23:07:20  +0.19  -0.53  -772.453710    3      26
iter:   9  23:07:26  +0.26  -0.51  -444.694720    36     52
iter:  10  23:07:31  +0.14  -0.84  -449.830023    30     42
iter:  11  23:07:37  -0.34  -0.84  -435.692572    35     36
iter:  12  23:07:42  -0.05  -0.97  -431.011367    35     38
iter:  13  23:07:47  -0.17  -1.12  -429.842451    3      26
iter:  14  23:07:52  -0.67  -1.17  -424.649160    4      37
iter:  15  23:07:57  -0.55  -1.31  -422.923037    3      38
iter:  16  23:08:03  -0.35  -1.29  -421.385544    35     34
iter:  17  23:08:08  -0.62  -1.51  -421.282731    3      22
iter:  18  23:08:12  -1.01  -1.53  -421.182985    3      14
iter:  19  23:08:17  -1.20  -1.56  -421.137961    3      21
iter:  20  23:08:22  -1.22  -1.60  -421.124231    4      26
iter:  21  23:08:27  -1.56  -1.71  -421.133096    3      22
iter:  22  23:08:32  -1.86  -1.74  -421.175127    3      18
iter:  23  23:08:36  -2.01  -1.78  -421.215347    3      22
iter:  24  23:08:41  -2.13  -1.83  -421.290740    3      27
iter:  25  23:08:46  -2.01  -1.92  -421.333052    3      18
iter:  26  23:08:51  -2.50  -1.95  -421.319851    3      19
iter:  27  23:08:55  -2.55  -2.03  -421.283231    3      11
iter:  28  23:09:00  -2.69  -2.10  -421.265274    3      13
iter:  29  23:09:04  -2.78  -2.13  -421.234403    3      17
iter:  30  23:09:09  -2.79  -2.20  -421.228406    3      16
iter:  31  23:09:14  -3.20  -2.21  -421.209239    3      18
iter:  32  23:09:18  -3.05  -2.27  -421.192712    3      15
iter:  33  23:09:23  -2.76  -2.34  -421.177586    3      22
iter:  34  23:09:28  -2.71  -2.51  -421.177338    3      13
iter:  35  23:09:32  -2.98  -2.59  -421.177039    3      15
iter:  36  23:09:37  -2.95  -2.75  -421.167053    3      12
iter:  37  23:09:41  -3.35  -2.91  -421.168980    2      4
iter:  38  23:09:46  -3.75  -2.96  -421.166542    3      8
iter:  39  23:09:50  -3.89  -3.00  -421.167867    2      4
iter:  40  23:09:54  -4.25  -3.05  -421.168825    2      8
iter:  41  23:09:59  -4.24  -3.07  -421.170003    2      6
iter:  42  23:10:03  -4.61  -3.18  -421.170669    3      8
iter:  43  23:10:07  -4.63  -3.18  -421.167995    3      6
iter:  44  23:10:12  -5.14  -3.39  -421.169570    3      7
iter:  45  23:10:16  -5.41  -3.31  -421.171344    2      4
iter:  46  23:10:20  -5.44  -3.49  -421.172148    3      5
iter:  47  23:10:25  -5.60  -3.60  -421.171559    2      4
iter:  48  23:10:29  -5.78  -3.58  -421.170766    2      3
iter:  49  23:10:33  -5.69  -3.68  -421.170857    3      8
iter:  50  23:10:38  -5.62  -3.52  -421.171419    2      3
iter:  51  23:10:42  -6.35  -3.64  -421.170777    2      3
iter:  52  23:10:46  -6.82  -3.64  -421.170832    2      2
iter:  53  23:10:50  -7.08  -3.68  -421.170785    2      2
iter:  54  23:10:55  -6.56  -3.74  -421.170871    2      3
iter:  55  23:10:59  -6.45  -3.88  -421.170056    2      2
iter:  56  23:11:03  -6.22  -3.88  -421.168841    2      4
iter:  57  23:11:07  -6.47  -3.97  -421.169118    2      2
iter:  58  23:11:12  -6.84  -3.96  -421.169241    2      2
iter:  59  23:11:16  -6.82  -3.99  -421.169303    2      4
iter:  60  23:11:20  -6.72  -4.11  -421.168867    2      2
iter:  61  23:11:24  -7.36  -4.25  -421.169390    2      1
iter:  62  23:11:29  -7.11  -4.28  -421.169321    2      3
iter:  63  23:11:33  -7.01  -4.05  -421.169704    2      3
iter:  64  23:11:37  -7.08  -3.98  -421.169898    2      2
iter:  65  23:11:41  -7.25  -4.06  -421.169915    2      3
iter:  66  23:11:46  -7.15  -4.44  -421.169775    2      2
iter:  67  23:11:50  -7.64  -4.56  -421.169576    2      2

Converged after 67 iterations.

Dipole moment: (1.112949, 1.929689, -78.611879) |e|*Ang

Energy contributions relative to reference atoms: (reference = -196909.616745)

Kinetic:       +582.797317
Potential:     -576.349109
External:        +0.000000
XC:            -458.677890
Entropy (-ST):   -1.024425
Local:          +31.572318
Free energy:   -421.681788
Extrapolated:  -421.169576

Fermi level: -1.57213

Showing all kpts
 Kpt  Band  Eigenvalues  Occupancy
  0   142     -1.71689    0.80963
  0   143     -1.57373    0.50400
  0   144     -1.53738    0.41400
  0   145     -1.53392    0.40563

  1   142     -1.73147    0.83109
  1   143     -1.70077    0.78354
  1   144     -1.52858    0.39283
  1   145     -1.49651    0.31948

Writing to out/2.gpw (mode='all')